25° run output:
{
    "Function": "kroA500.tsp",
    "Problem dimension": [
        119,
        429,
        266,
        485,
        28,
        386,
        395,
        246,
        237,
        109,
        373,
        481,
        23,
        401,
        477,
        499,
        86,
        125,
        470,
        145,
        406,
        60,
        15,
        427,
        463,
        111,
        33,
        13,
        32,
        341,
        169,
        245,
        363,
        367,
        403,
        112,
        209,
        410,
        276,
        136,
        390,
        415,
        164,
        340,
        385,
        114,
        489,
        345,
        150,
        103,
        315,
        71,
        338,
        265,
        22,
        184,
        181,
        462,
        77,
        25,
        16,
        116,
        398,
        175,
        220,
        400,
        210,
        27,
        235,
        174,
        10,
        195,
        433,
        96,
        202,
        330,
        483,
        102,
        323,
        18,
        46,
        285,
        300,
        144,
        418,
        131,
        359,
        487,
        484,
        268,
        344,
        11,
        101,
        166,
        498,
        248,
        78,
        56,
        212,
        264,
        149,
        94,
        66,
        291,
        316,
        124,
        146,
        447,
        48,
        231,
        194,
        104,
        458,
        113,
        267,
        311,
        151,
        0,
        50,
        152,
        479,
        293,
        127,
        95,
        165,
        133,
        349,
        182,
        380,
        453,
        476,
        14,
        74,
        206,
        203,
        461,
        288,
        352,
        73,
        446,
        455,
        448,
        368,
        234,
        84,
        393,
        107,
        467,
        421,
        69,
        170,
        216,
        85,
        37,
        357,
        75,
        405,
        478,
        160,
        240,
        445,
        141,
        443,
        423,
        233,
        62,
        355,
        411,
        67,
        138,
        270,
        404,
        137,
        274,
        30,
        177,
        214,
        309,
        297,
        222,
        354,
        365,
        482,
        425,
        454,
        117,
        335,
        155,
        449,
        392,
        157,
        65,
        346,
        435,
        333,
        343,
        317,
        356,
        243,
        384,
        361,
        98,
        412,
        223,
        154,
        308,
        232,
        310,
        180,
        153,
        273,
        283,
        229,
        82,
        457,
        7,
        320,
        191,
        39,
        399,
        162,
        207,
        129,
        3,
        183,
        295,
        375,
        61,
        409,
        466,
        496,
        475,
        34,
        358,
        53,
        318,
        413,
        196,
        287,
        87,
        134,
        185,
        148,
        284,
        51,
        383,
        289,
        105,
        428,
        306,
        282,
        396,
        76,
        391,
        322,
        242,
        431,
        128,
        201,
        36,
        379,
        159,
        54,
        376,
        319,
        492,
        100,
        211,
        465,
        347,
        236,
        92,
        296,
        38,
        89,
        473,
        419,
        228,
        81,
        353,
        407,
        204,
        348,
        440,
        83,
        259,
        132,
        199,
        417,
        250,
        459,
        72,
        351,
        29,
        420,
        331,
        197,
        321,
        301,
        68,
        80,
        42,
        408,
        135,
        251,
        193,
        456,
        444,
        64,
        422,
        468,
        93,
        360,
        168,
        450,
        364,
        378,
        218,
        490,
        5,
        292,
        158,
        397,
        253,
        186,
        314,
        57,
        147,
        215,
        389,
        139,
        277,
        307,
        303,
        430,
        79,
        115,
        469,
        305,
        275,
        6,
        8,
        252,
        90,
        437,
        339,
        255,
        189,
        371,
        261,
        313,
        187,
        342,
        9,
        441,
        480,
        224,
        382,
        381,
        21,
        304,
        108,
        324,
        45,
        55,
        99,
        280,
        58,
        190,
        171,
        142,
        337,
        31,
        432,
        325,
        19,
        247,
        106,
        217,
        326,
        491,
        497,
        271,
        88,
        436,
        143,
        302,
        20,
        299,
        372,
        312,
        474,
        120,
        327,
        35,
        173,
        52,
        263,
        130,
        278,
        336,
        230,
        59,
        43,
        258,
        460,
        257,
        394,
        91,
        213,
        442,
        219,
        179,
        2,
        256,
        452,
        286,
        414,
        281,
        494,
        239,
        387,
        156,
        167,
        426,
        208,
        366,
        123,
        298,
        241,
        221,
        63,
        488,
        70,
        370,
        272,
        97,
        290,
        238,
        334,
        200,
        188,
        205,
        377,
        402,
        244,
        472,
        41,
        161,
        434,
        227,
        178,
        40,
        12,
        249,
        47,
        225,
        24,
        438,
        192,
        262,
        198,
        493,
        495,
        369,
        464,
        1,
        451,
        294,
        126,
        4,
        424,
        122,
        140,
        49,
        471,
        439,
        260,
        172,
        486,
        44,
        328,
        332,
        118,
        269,
        121,
        254,
        350,
        26,
        279,
        226,
        176,
        416,
        388,
        163,
        362,
        374,
        110,
        329,
        17
    ],
    "Global Optimum": 0,
    "Algorithm": "Genetic algorithm",
    "Parameters": {
        "population": 30,
        "offspring": 30,
        "mutation probability": 0.002,
        "crossover probability": 0.9
    },
    "Fitness": 663021,
    "Solution": [
        119,
        429,
        266,
        485,
        28,
        386,
        395,
        246,
        237,
        109,
        373,
        481,
        23,
        401,
        477,
        499,
        86,
        125,
        470,
        145,
        406,
        60,
        15,
        427,
        463,
        111,
        33,
        13,
        32,
        341,
        169,
        245,
        363,
        367,
        403,
        112,
        209,
        410,
        276,
        136,
        390,
        415,
        164,
        340,
        385,
        114,
        489,
        345,
        150,
        103,
        315,
        71,
        338,
        265,
        22,
        184,
        181,
        462,
        77,
        25,
        16,
        116,
        398,
        175,
        220,
        400,
        210,
        27,
        235,
        174,
        10,
        195,
        433,
        96,
        202,
        330,
        483,
        102,
        323,
        18,
        46,
        285,
        300,
        144,
        418,
        131,
        359,
        487,
        484,
        268,
        344,
        11,
        101,
        166,
        498,
        248,
        78,
        56,
        212,
        264,
        149,
        94,
        66,
        291,
        316,
        124,
        146,
        447,
        48,
        231,
        194,
        104,
        458,
        113,
        267,
        311,
        151,
        0,
        50,
        152,
        479,
        293,
        127,
        95,
        165,
        133,
        349,
        182,
        380,
        453,
        476,
        14,
        74,
        206,
        203,
        461,
        288,
        352,
        73,
        446,
        455,
        448,
        368,
        234,
        84,
        393,
        107,
        467,
        421,
        69,
        170,
        216,
        85,
        37,
        357,
        75,
        405,
        478,
        160,
        240,
        445,
        141,
        443,
        423,
        233,
        62,
        355,
        411,
        67,
        138,
        270,
        404,
        137,
        274,
        30,
        177,
        214,
        309,
        297,
        222,
        354,
        365,
        482,
        425,
        454,
        117,
        335,
        155,
        449,
        392,
        157,
        65,
        346,
        435,
        333,
        343,
        317,
        356,
        243,
        384,
        361,
        98,
        412,
        223,
        154,
        308,
        232,
        310,
        180,
        153,
        273,
        283,
        229,
        82,
        457,
        7,
        320,
        191,
        39,
        399,
        162,
        207,
        129,
        3,
        183,
        295,
        375,
        61,
        409,
        466,
        496,
        475,
        34,
        358,
        53,
        318,
        413,
        196,
        287,
        87,
        134,
        185,
        148,
        284,
        51,
        383,
        289,
        105,
        428,
        306,
        282,
        396,
        76,
        391,
        322,
        242,
        431,
        128,
        201,
        36,
        379,
        159,
        54,
        376,
        319,
        492,
        100,
        211,
        465,
        347,
        236,
        92,
        296,
        38,
        89,
        473,
        419,
        228,
        81,
        353,
        407,
        204,
        348,
        440,
        83,
        259,
        132,
        199,
        417,
        250,
        459,
        72,
        351,
        29,
        420,
        331,
        197,
        321,
        301,
        68,
        80,
        42,
        408,
        135,
        251,
        193,
        456,
        444,
        64,
        422,
        468,
        93,
        360,
        168,
        450,
        364,
        378,
        218,
        490,
        5,
        292,
        158,
        397,
        253,
        186,
        314,
        57,
        147,
        215,
        389,
        139,
        277,
        307,
        303,
        430,
        79,
        115,
        469,
        305,
        275,
        6,
        8,
        252,
        90,
        437,
        339,
        255,
        189,
        371,
        261,
        313,
        187,
        342,
        9,
        441,
        480,
        224,
        382,
        381,
        21,
        304,
        108,
        324,
        45,
        55,
        99,
        280,
        58,
        190,
        171,
        142,
        337,
        31,
        432,
        325,
        19,
        247,
        106,
        217,
        326,
        491,
        497,
        271,
        88,
        436,
        143,
        302,
        20,
        299,
        372,
        312,
        474,
        120,
        327,
        35,
        173,
        52,
        263,
        130,
        278,
        336,
        230,
        59,
        43,
        258,
        460,
        257,
        394,
        91,
        213,
        442,
        219,
        179,
        2,
        256,
        452,
        286,
        414,
        281,
        494,
        239,
        387,
        156,
        167,
        426,
        208,
        366,
        123,
        298,
        241,
        221,
        63,
        488,
        70,
        370,
        272,
        97,
        290,
        238,
        334,
        200,
        188,
        205,
        377,
        402,
        244,
        472,
        41,
        161,
        434,
        227,
        178,
        40,
        12,
        249,
        47,
        225,
        24,
        438,
        192,
        262,
        198,
        493,
        495,
        369,
        464,
        1,
        451,
        294,
        126,
        4,
        424,
        122,
        140,
        49,
        471,
        439,
        260,
        172,
        486,
        44,
        328,
        332,
        118,
        269,
        121,
        254,
        350,
        26,
        279,
        226,
        176,
        416,
        388,
        163,
        362,
        374,
        110,
        329,
        17
    ],
    "Nb of functions evaluations": 50010,
    "Computational time in seconds": 362.59107303619385,
    "Stopping criterion in evaluations": 50000
}